32	0

0	1	2
7	1	3
9	1	4
4	1	5
5	1	6
3	1	7
5	1	8
4	1	9
8	1	10
7	1	11
5	1	12
6	1	13
3	1	14
1	1	15
8	1	16
4	1	17
2	1	18
9	1	19
2	1	20
7	1	21
6	1	22
7	1	23
6	1	24
5	1	25
7	1	26
8	1	27
8	1	28
7	1	29
9	1	30
6	1	31
6	1	32
0	0
